c File: flat50_3_0.col
c
c SOURCE: Joseph Culberson (joe@cs.ualberta.ca)
c DESCRIPTION: Quasi-random coloring problem
c              generated with flatness = 0
c                             probability = 0.139
c                             known coloring = 3
c                             random seed = 1852
c              Creation Date:  Tue Jun  9 12:19:31 1998
c Maximum degree = 8 Minimum degree = 2
c p edge 50 115
c cnf created by edge2cnf
p cnf 150 545
-1 -2 0
-1 -3 0
-2 -3 0
1 2 3 0
-4 -5 0
-4 -6 0
-5 -6 0
4 5 6 0
-7 -8 0
-7 -9 0
-8 -9 0
7 8 9 0
-10 -11 0
-10 -12 0
-11 -12 0
10 11 12 0
-13 -14 0
-13 -15 0
-14 -15 0
13 14 15 0
-16 -17 0
-16 -18 0
-17 -18 0
16 17 18 0
-19 -20 0
-19 -21 0
-20 -21 0
19 20 21 0
-22 -23 0
-22 -24 0
-23 -24 0
22 23 24 0
-25 -26 0
-25 -27 0
-26 -27 0
25 26 27 0
-28 -29 0
-28 -30 0
-29 -30 0
28 29 30 0
-31 -32 0
-31 -33 0
-32 -33 0
31 32 33 0
-34 -35 0
-34 -36 0
-35 -36 0
34 35 36 0
-37 -38 0
-37 -39 0
-38 -39 0
37 38 39 0
-40 -41 0
-40 -42 0
-41 -42 0
40 41 42 0
-43 -44 0
-43 -45 0
-44 -45 0
43 44 45 0
-46 -47 0
-46 -48 0
-47 -48 0
46 47 48 0
-49 -50 0
-49 -51 0
-50 -51 0
49 50 51 0
-52 -53 0
-52 -54 0
-53 -54 0
52 53 54 0
-55 -56 0
-55 -57 0
-56 -57 0
55 56 57 0
-58 -59 0
-58 -60 0
-59 -60 0
58 59 60 0
-61 -62 0
-61 -63 0
-62 -63 0
61 62 63 0
-64 -65 0
-64 -66 0
-65 -66 0
64 65 66 0
-67 -68 0
-67 -69 0
-68 -69 0
67 68 69 0
-70 -71 0
-70 -72 0
-71 -72 0
70 71 72 0
-73 -74 0
-73 -75 0
-74 -75 0
73 74 75 0
-76 -77 0
-76 -78 0
-77 -78 0
76 77 78 0
-79 -80 0
-79 -81 0
-80 -81 0
79 80 81 0
-82 -83 0
-82 -84 0
-83 -84 0
82 83 84 0
-85 -86 0
-85 -87 0
-86 -87 0
85 86 87 0
-88 -89 0
-88 -90 0
-89 -90 0
88 89 90 0
-91 -92 0
-91 -93 0
-92 -93 0
91 92 93 0
-94 -95 0
-94 -96 0
-95 -96 0
94 95 96 0
-97 -98 0
-97 -99 0
-98 -99 0
97 98 99 0
-100 -101 0
-100 -102 0
-101 -102 0
100 101 102 0
-103 -104 0
-103 -105 0
-104 -105 0
103 104 105 0
-106 -107 0
-106 -108 0
-107 -108 0
106 107 108 0
-109 -110 0
-109 -111 0
-110 -111 0
109 110 111 0
-112 -113 0
-112 -114 0
-113 -114 0
112 113 114 0
-115 -116 0
-115 -117 0
-116 -117 0
115 116 117 0
-118 -119 0
-118 -120 0
-119 -120 0
118 119 120 0
-121 -122 0
-121 -123 0
-122 -123 0
121 122 123 0
-124 -125 0
-124 -126 0
-125 -126 0
124 125 126 0
-127 -128 0
-127 -129 0
-128 -129 0
127 128 129 0
-130 -131 0
-130 -132 0
-131 -132 0
130 131 132 0
-133 -134 0
-133 -135 0
-134 -135 0
133 134 135 0
-136 -137 0
-136 -138 0
-137 -138 0
136 137 138 0
-139 -140 0
-139 -141 0
-140 -141 0
139 140 141 0
-142 -143 0
-142 -144 0
-143 -144 0
142 143 144 0
-145 -146 0
-145 -147 0
-146 -147 0
145 146 147 0
-148 -149 0
-148 -150 0
-149 -150 0
148 149 150 0
-61 -1 0
-62 -2 0
-63 -3 0
-91 -1 0
-92 -2 0
-93 -3 0
-100 -1 0
-101 -2 0
-102 -3 0
-130 -1 0
-131 -2 0
-132 -3 0
-145 -1 0
-146 -2 0
-147 -3 0
-58 -4 0
-59 -5 0
-60 -6 0
-82 -4 0
-83 -5 0
-84 -6 0
-88 -4 0
-89 -5 0
-90 -6 0
-91 -4 0
-92 -5 0
-93 -6 0
-109 -4 0
-110 -5 0
-111 -6 0
-52 -7 0
-53 -8 0
-54 -9 0
-67 -7 0
-68 -8 0
-69 -9 0
-100 -7 0
-101 -8 0
-102 -9 0
-109 -7 0
-110 -8 0
-111 -9 0
-112 -7 0
-113 -8 0
-114 -9 0
-67 -10 0
-68 -11 0
-69 -12 0
-88 -10 0
-89 -11 0
-90 -12 0
-94 -10 0
-95 -11 0
-96 -12 0
-133 -10 0
-134 -11 0
-135 -12 0
-76 -13 0
-77 -14 0
-78 -15 0
-88 -13 0
-89 -14 0
-90 -15 0
-103 -13 0
-104 -14 0
-105 -15 0
-136 -13 0
-137 -14 0
-138 -15 0
-85 -16 0
-86 -17 0
-87 -18 0
-127 -16 0
-128 -17 0
-129 -18 0
-55 -19 0
-56 -20 0
-57 -21 0
-118 -19 0
-119 -20 0
-120 -21 0
-94 -22 0
-95 -23 0
-96 -24 0
-103 -22 0
-104 -23 0
-105 -24 0
-112 -22 0
-113 -23 0
-114 -24 0
-142 -22 0
-143 -23 0
-144 -24 0
-148 -22 0
-149 -23 0
-150 -24 0
-115 -25 0
-116 -26 0
-117 -27 0
-130 -25 0
-131 -26 0
-132 -27 0
-142 -25 0
-143 -26 0
-144 -27 0
-100 -28 0
-101 -29 0
-102 -30 0
-115 -28 0
-116 -29 0
-117 -30 0
-55 -31 0
-56 -32 0
-57 -33 0
-79 -31 0
-80 -32 0
-81 -33 0
-88 -31 0
-89 -32 0
-90 -33 0
-97 -31 0
-98 -32 0
-99 -33 0
-112 -31 0
-113 -32 0
-114 -33 0
-142 -31 0
-143 -32 0
-144 -33 0
-148 -31 0
-149 -32 0
-150 -33 0
-55 -34 0
-56 -35 0
-57 -36 0
-94 -34 0
-95 -35 0
-96 -36 0
-97 -34 0
-98 -35 0
-99 -36 0
-115 -34 0
-116 -35 0
-117 -36 0
-118 -34 0
-119 -35 0
-120 -36 0
-124 -34 0
-125 -35 0
-126 -36 0
-70 -37 0
-71 -38 0
-72 -39 0
-103 -37 0
-104 -38 0
-105 -39 0
-124 -37 0
-125 -38 0
-126 -39 0
-133 -37 0
-134 -38 0
-135 -39 0
-145 -37 0
-146 -38 0
-147 -39 0
-58 -40 0
-59 -41 0
-60 -42 0
-64 -40 0
-65 -41 0
-66 -42 0
-70 -40 0
-71 -41 0
-72 -42 0
-97 -40 0
-98 -41 0
-99 -42 0
-121 -40 0
-122 -41 0
-123 -42 0
-76 -43 0
-77 -44 0
-78 -45 0
-79 -43 0
-80 -44 0
-81 -45 0
-82 -43 0
-83 -44 0
-84 -45 0
-124 -43 0
-125 -44 0
-126 -45 0
-130 -43 0
-131 -44 0
-132 -45 0
-139 -43 0
-140 -44 0
-141 -45 0
-58 -46 0
-59 -47 0
-60 -48 0
-76 -46 0
-77 -47 0
-78 -48 0
-100 -46 0
-101 -47 0
-102 -48 0
-115 -46 0
-116 -47 0
-117 -48 0
-124 -46 0
-125 -47 0
-126 -48 0
-136 -46 0
-137 -47 0
-138 -48 0
-142 -46 0
-143 -47 0
-144 -48 0
-61 -49 0
-62 -50 0
-63 -51 0
-79 -49 0
-80 -50 0
-81 -51 0
-82 -49 0
-83 -50 0
-84 -51 0
-109 -49 0
-110 -50 0
-111 -51 0
-130 -52 0
-131 -53 0
-132 -54 0
-133 -52 0
-134 -53 0
-135 -54 0
-142 -52 0
-143 -53 0
-144 -54 0
-145 -52 0
-146 -53 0
-147 -54 0
-106 -55 0
-107 -56 0
-108 -57 0
-148 -55 0
-149 -56 0
-150 -57 0
-106 -58 0
-107 -59 0
-108 -60 0
-124 -61 0
-125 -62 0
-126 -63 0
-145 -61 0
-146 -62 0
-147 -63 0
-118 -64 0
-119 -65 0
-120 -66 0
-142 -64 0
-143 -65 0
-144 -66 0
-115 -67 0
-116 -68 0
-117 -69 0
-127 -67 0
-128 -68 0
-129 -69 0
-142 -67 0
-143 -68 0
-144 -69 0
-112 -70 0
-113 -71 0
-114 -72 0
-115 -70 0
-116 -71 0
-117 -72 0
-139 -70 0
-140 -71 0
-141 -72 0
-127 -73 0
-128 -74 0
-129 -75 0
-136 -73 0
-137 -74 0
-138 -75 0
-145 -73 0
-146 -74 0
-147 -75 0
-148 -73 0
-149 -74 0
-150 -75 0
-115 -76 0
-116 -77 0
-117 -78 0
-121 -76 0
-122 -77 0
-123 -78 0
-130 -76 0
-131 -77 0
-132 -78 0
-148 -76 0
-149 -77 0
-150 -78 0
-115 -79 0
-116 -80 0
-117 -81 0
-118 -85 0
-119 -86 0
-120 -87 0
-121 -85 0
-122 -86 0
-123 -87 0
-133 -85 0
-134 -86 0
-135 -87 0
-103 -88 0
-104 -89 0
-105 -90 0
-112 -88 0
-113 -89 0
-114 -90 0
-109 -91 0
-110 -92 0
-111 -93 0
-118 -91 0
-119 -92 0
-120 -93 0
-148 -91 0
-149 -92 0
-150 -93 0
-118 -94 0
-119 -95 0
-120 -96 0
-145 -97 0
-146 -98 0
-147 -99 0
-112 -100 0
-113 -101 0
-114 -102 0
-124 -100 0
-125 -101 0
-126 -102 0
